c nombre: 35
c densidad: 0.5
p edges 100 2469
e 1 2
e 1 5
e 1 6
e 1 13
e 1 14
e 1 15
e 1 16
e 1 17
e 1 20
e 1 23
e 1 24
e 1 29
e 1 30
e 1 32
e 1 34
e 1 35
e 1 36
e 1 37
e 1 40
e 1 42
e 1 44
e 1 45
e 1 47
e 1 50
e 1 52
e 1 53
e 1 54
e 1 55
e 1 58
e 1 62
e 1 63
e 1 64
e 1 65
e 1 66
e 1 67
e 1 69
e 1 70
e 1 72
e 1 73
e 1 74
e 1 75
e 1 77
e 1 79
e 1 82
e 1 83
e 1 85
e 1 88
e 1 90
e 1 93
e 1 94
e 1 97
e 1 98
e 1 100
e 2 3
e 2 4
e 2 6
e 2 9
e 2 10
e 2 13
e 2 15
e 2 16
e 2 19
e 2 20
e 2 22
e 2 23
e 2 32
e 2 33
e 2 36
e 2 37
e 2 38
e 2 39
e 2 43
e 2 46
e 2 47
e 2 48
e 2 50
e 2 51
e 2 53
e 2 55
e 2 56
e 2 60
e 2 63
e 2 64
e 2 67
e 2 68
e 2 69
e 2 70
e 2 73
e 2 74
e 2 81
e 2 82
e 2 83
e 2 88
e 2 92
e 2 93
e 2 98
e 2 100
e 3 4
e 3 6
e 3 9
e 3 10
e 3 11
e 3 13
e 3 14
e 3 15
e 3 16
e 3 17
e 3 19
e 3 22
e 3 23
e 3 27
e 3 34
e 3 37
e 3 40
e 3 42
e 3 43
e 3 44
e 3 45
e 3 47
e 3 48
e 3 50
e 3 51
e 3 52
e 3 55
e 3 57
e 3 58
e 3 60
e 3 61
e 3 62
e 3 68
e 3 69
e 3 70
e 3 72
e 3 73
e 3 75
e 3 76
e 3 78
e 3 80
e 3 85
e 3 87
e 3 93
e 3 97
e 4 6
e 4 8
e 4 9
e 4 11
e 4 13
e 4 15
e 4 16
e 4 20
e 4 23
e 4 24
e 4 26
e 4 27
e 4 30
e 4 31
e 4 32
e 4 34
e 4 38
e 4 41
e 4 42
e 4 45
e 4 46
e 4 50
e 4 51
e 4 53
e 4 54
e 4 55
e 4 58
e 4 59
e 4 60
e 4 65
e 4 66
e 4 67
e 4 72
e 4 73
e 4 76
e 4 79
e 4 82
e 4 83
e 4 86
e 4 88
e 4 92
e 4 94
e 5 7
e 5 8
e 5 12
e 5 13
e 5 14
e 5 15
e 5 17
e 5 18
e 5 19
e 5 20
e 5 22
e 5 30
e 5 35
e 5 37
e 5 38
e 5 40
e 5 41
e 5 42
e 5 48
e 5 57
e 5 58
e 5 59
e 5 60
e 5 61
e 5 64
e 5 65
e 5 69
e 5 70
e 5 71
e 5 72
e 5 75
e 5 77
e 5 79
e 5 80
e 5 85
e 5 87
e 5 90
e 5 92
e 5 93
e 5 94
e 5 95
e 6 7
e 6 8
e 6 9
e 6 10
e 6 11
e 6 18
e 6 23
e 6 25
e 6 26
e 6 27
e 6 29
e 6 30
e 6 33
e 6 36
e 6 38
e 6 39
e 6 40
e 6 41
e 6 42
e 6 44
e 6 46
e 6 47
e 6 49
e 6 52
e 6 53
e 6 54
e 6 58
e 6 59
e 6 60
e 6 62
e 6 70
e 6 74
e 6 76
e 6 79
e 6 80
e 6 82
e 6 83
e 6 85
e 6 86
e 6 89
e 6 90
e 6 93
e 6 96
e 6 97
e 7 9
e 7 11
e 7 15
e 7 17
e 7 18
e 7 19
e 7 20
e 7 21
e 7 22
e 7 26
e 7 27
e 7 29
e 7 30
e 7 31
e 7 32
e 7 34
e 7 37
e 7 41
e 7 42
e 7 43
e 7 44
e 7 48
e 7 51
e 7 52
e 7 53
e 7 54
e 7 55
e 7 57
e 7 58
e 7 61
e 7 63
e 7 65
e 7 68
e 7 69
e 7 70
e 7 71
e 7 73
e 7 74
e 7 76
e 7 77
e 7 78
e 7 79
e 7 81
e 7 83
e 7 84
e 7 86
e 7 87
e 7 88
e 7 89
e 7 91
e 7 94
e 7 98
e 7 99
e 8 9
e 8 10
e 8 11
e 8 12
e 8 14
e 8 15
e 8 17
e 8 20
e 8 21
e 8 25
e 8 31
e 8 32
e 8 33
e 8 37
e 8 38
e 8 40
e 8 41
e 8 42
e 8 45
e 8 46
e 8 50
e 8 51
e 8 52
e 8 53
e 8 54
e 8 55
e 8 56
e 8 58
e 8 59
e 8 61
e 8 64
e 8 67
e 8 70
e 8 71
e 8 73
e 8 74
e 8 77
e 8 78
e 8 80
e 8 81
e 8 87
e 8 90
e 8 91
e 8 94
e 8 95
e 8 98
e 8 99
e 9 10
e 9 12
e 9 15
e 9 17
e 9 18
e 9 19
e 9 20
e 9 22
e 9 23
e 9 24
e 9 25
e 9 27
e 9 28
e 9 32
e 9 35
e 9 36
e 9 40
e 9 42
e 9 44
e 9 45
e 9 46
e 9 47
e 9 48
e 9 52
e 9 56
e 9 58
e 9 59
e 9 60
e 9 62
e 9 63
e 9 65
e 9 69
e 9 71
e 9 72
e 9 73
e 9 74
e 9 76
e 9 77
e 9 81
e 9 82
e 9 83
e 9 84
e 9 85
e 9 86
e 9 89
e 9 92
e 9 93
e 9 94
e 9 96
e 9 99
e 9 100
e 10 12
e 10 13
e 10 17
e 10 18
e 10 20
e 10 21
e 10 23
e 10 24
e 10 25
e 10 29
e 10 33
e 10 35
e 10 36
e 10 38
e 10 39
e 10 40
e 10 41
e 10 43
e 10 46
e 10 49
e 10 50
e 10 51
e 10 52
e 10 53
e 10 54
e 10 56
e 10 58
e 10 59
e 10 60
e 10 61
e 10 63
e 10 64
e 10 66
e 10 69
e 10 73
e 10 74
e 10 75
e 10 76
e 10 77
e 10 79
e 10 80
e 10 82
e 10 84
e 10 85
e 10 86
e 10 87
e 10 88
e 10 93
e 10 95
e 10 100
e 11 13
e 11 16
e 11 19
e 11 25
e 11 27
e 11 31
e 11 32
e 11 33
e 11 36
e 11 37
e 11 39
e 11 41
e 11 42
e 11 43
e 11 44
e 11 45
e 11 46
e 11 49
e 11 52
e 11 54
e 11 55
e 11 56
e 11 63
e 11 70
e 11 71
e 11 73
e 11 75
e 11 76
e 11 77
e 11 79
e 11 86
e 11 90
e 11 91
e 11 92
e 11 94
e 11 95
e 11 96
e 11 97
e 11 98
e 12 13
e 12 14
e 12 17
e 12 18
e 12 21
e 12 22
e 12 23
e 12 25
e 12 26
e 12 28
e 12 29
e 12 30
e 12 32
e 12 33
e 12 34
e 12 36
e 12 37
e 12 38
e 12 45
e 12 47
e 12 50
e 12 51
e 12 58
e 12 60
e 12 61
e 12 67
e 12 72
e 12 73
e 12 74
e 12 75
e 12 79
e 12 81
e 12 82
e 12 86
e 12 87
e 12 90
e 12 92
e 12 96
e 12 97
e 12 99
e 12 100
e 13 17
e 13 18
e 13 23
e 13 26
e 13 27
e 13 29
e 13 30
e 13 31
e 13 32
e 13 33
e 13 34
e 13 35
e 13 36
e 13 40
e 13 41
e 13 43
e 13 44
e 13 55
e 13 58
e 13 59
e 13 60
e 13 62
e 13 63
e 13 66
e 13 68
e 13 69
e 13 72
e 13 76
e 13 81
e 13 82
e 13 83
e 13 84
e 13 85
e 13 89
e 13 90
e 13 91
e 13 92
e 13 93
e 13 95
e 13 97
e 13 98
e 13 99
e 13 100
e 14 16
e 14 20
e 14 21
e 14 24
e 14 25
e 14 26
e 14 32
e 14 37
e 14 40
e 14 43
e 14 44
e 14 45
e 14 46
e 14 48
e 14 50
e 14 51
e 14 52
e 14 53
e 14 54
e 14 55
e 14 56
e 14 59
e 14 61
e 14 65
e 14 69
e 14 70
e 14 72
e 14 73
e 14 76
e 14 78
e 14 79
e 14 85
e 14 87
e 14 88
e 14 90
e 14 96
e 14 97
e 14 98
e 15 16
e 15 17
e 15 18
e 15 19
e 15 20
e 15 21
e 15 23
e 15 24
e 15 25
e 15 27
e 15 28
e 15 30
e 15 31
e 15 33
e 15 35
e 15 36
e 15 37
e 15 38
e 15 39
e 15 40
e 15 43
e 15 45
e 15 46
e 15 47
e 15 49
e 15 52
e 15 54
e 15 62
e 15 63
e 15 64
e 15 66
e 15 68
e 15 69
e 15 71
e 15 72
e 15 73
e 15 74
e 15 78
e 15 79
e 15 81
e 15 82
e 15 83
e 15 85
e 15 87
e 15 88
e 15 90
e 15 93
e 15 94
e 15 96
e 15 99
e 15 100
e 16 17
e 16 18
e 16 19
e 16 22
e 16 23
e 16 24
e 16 25
e 16 27
e 16 28
e 16 29
e 16 30
e 16 31
e 16 33
e 16 34
e 16 36
e 16 39
e 16 40
e 16 41
e 16 43
e 16 49
e 16 50
e 16 52
e 16 53
e 16 60
e 16 61
e 16 65
e 16 67
e 16 68
e 16 70
e 16 71
e 16 73
e 16 75
e 16 77
e 16 78
e 16 79
e 16 80
e 16 81
e 16 82
e 16 86
e 16 87
e 16 89
e 16 92
e 16 94
e 16 95
e 16 96
e 16 97
e 16 98
e 16 99
e 17 18
e 17 19
e 17 20
e 17 21
e 17 25
e 17 26
e 17 27
e 17 30
e 17 31
e 17 32
e 17 33
e 17 34
e 17 35
e 17 36
e 17 37
e 17 38
e 17 41
e 17 42
e 17 43
e 17 44
e 17 45
e 17 46
e 17 47
e 17 48
e 17 49
e 17 54
e 17 60
e 17 61
e 17 63
e 17 64
e 17 65
e 17 66
e 17 67
e 17 68
e 17 70
e 17 71
e 17 73
e 17 74
e 17 77
e 17 78
e 17 81
e 17 82
e 17 86
e 17 88
e 17 89
e 17 90
e 17 92
e 17 93
e 17 96
e 17 97
e 17 98
e 18 19
e 18 25
e 18 26
e 18 28
e 18 29
e 18 34
e 18 35
e 18 36
e 18 38
e 18 40
e 18 41
e 18 43
e 18 44
e 18 45
e 18 47
e 18 50
e 18 51
e 18 52
e 18 53
e 18 54
e 18 61
e 18 62
e 18 64
e 18 67
e 18 69
e 18 70
e 18 71
e 18 73
e 18 74
e 18 76
e 18 77
e 18 81
e 18 82
e 18 84
e 18 85
e 18 88
e 18 89
e 18 91
e 18 93
e 18 96
e 18 98
e 19 20
e 19 23
e 19 24
e 19 25
e 19 26
e 19 27
e 19 29
e 19 30
e 19 31
e 19 32
e 19 34
e 19 37
e 19 43
e 19 45
e 19 46
e 19 53
e 19 54
e 19 55
e 19 56
e 19 58
e 19 59
e 19 61
e 19 62
e 19 64
e 19 66
e 19 68
e 19 69
e 19 77
e 19 78
e 19 79
e 19 82
e 19 84
e 19 85
e 19 89
e 19 91
e 19 92
e 19 93
e 19 94
e 19 97
e 19 99
e 20 23
e 20 24
e 20 26
e 20 27
e 20 34
e 20 36
e 20 37
e 20 38
e 20 39
e 20 40
e 20 42
e 20 43
e 20 44
e 20 46
e 20 47
e 20 48
e 20 50
e 20 53
e 20 54
e 20 57
e 20 61
e 20 63
e 20 64
e 20 65
e 20 67
e 20 68
e 20 69
e 20 70
e 20 71
e 20 72
e 20 75
e 20 76
e 20 78
e 20 82
e 20 83
e 20 85
e 20 86
e 20 88
e 20 89
e 20 91
e 20 93
e 20 96
e 20 97
e 20 98
e 20 99
e 21 25
e 21 26
e 21 29
e 21 30
e 21 31
e 21 32
e 21 34
e 21 36
e 21 39
e 21 40
e 21 41
e 21 43
e 21 48
e 21 49
e 21 53
e 21 54
e 21 62
e 21 67
e 21 68
e 21 69
e 21 70
e 21 71
e 21 75
e 21 77
e 21 78
e 21 79
e 21 84
e 21 86
e 21 87
e 21 88
e 21 89
e 21 90
e 21 91
e 21 93
e 21 97
e 22 23
e 22 24
e 22 26
e 22 29
e 22 30
e 22 31
e 22 32
e 22 34
e 22 39
e 22 42
e 22 45
e 22 46
e 22 50
e 22 52
e 22 53
e 22 55
e 22 57
e 22 58
e 22 60
e 22 61
e 22 63
e 22 71
e 22 72
e 22 74
e 22 75
e 22 77
e 22 78
e 22 80
e 22 81
e 22 82
e 22 83
e 22 85
e 22 87
e 22 88
e 22 89
e 22 90
e 22 92
e 22 93
e 22 95
e 22 96
e 22 100
e 23 24
e 23 27
e 23 28
e 23 30
e 23 35
e 23 36
e 23 37
e 23 40
e 23 41
e 23 43
e 23 44
e 23 46
e 23 47
e 23 49
e 23 50
e 23 51
e 23 52
e 23 55
e 23 58
e 23 59
e 23 62
e 23 63
e 23 64
e 23 67
e 23 71
e 23 74
e 23 78
e 23 79
e 23 86
e 23 88
e 23 92
e 23 94
e 23 95
e 23 100
e 24 27
e 24 30
e 24 32
e 24 33
e 24 35
e 24 36
e 24 37
e 24 38
e 24 41
e 24 42
e 24 44
e 24 45
e 24 47
e 24 48
e 24 51
e 24 55
e 24 56
e 24 57
e 24 58
e 24 59
e 24 60
e 24 61
e 24 66
e 24 69
e 24 76
e 24 77
e 24 80
e 24 84
e 24 85
e 24 89
e 24 92
e 24 95
e 24 96
e 24 99
e 24 100
e 25 26
e 25 29
e 25 30
e 25 31
e 25 34
e 25 35
e 25 39
e 25 40
e 25 41
e 25 42
e 25 45
e 25 48
e 25 53
e 25 54
e 25 56
e 25 59
e 25 61
e 25 63
e 25 65
e 25 67
e 25 68
e 25 70
e 25 71
e 25 75
e 25 78
e 25 79
e 25 80
e 25 83
e 25 84
e 25 95
e 25 100
e 26 27
e 26 28
e 26 31
e 26 32
e 26 33
e 26 35
e 26 36
e 26 37
e 26 38
e 26 39
e 26 40
e 26 41
e 26 42
e 26 43
e 26 44
e 26 48
e 26 51
e 26 53
e 26 56
e 26 59
e 26 61
e 26 63
e 26 64
e 26 65
e 26 68
e 26 72
e 26 75
e 26 77
e 26 78
e 26 82
e 26 84
e 26 86
e 26 95
e 26 96
e 26 97
e 26 100
e 27 29
e 27 30
e 27 34
e 27 37
e 27 40
e 27 41
e 27 43
e 27 45
e 27 47
e 27 48
e 27 50
e 27 52
e 27 53
e 27 54
e 27 56
e 27 59
e 27 62
e 27 63
e 27 64
e 27 65
e 27 66
e 27 67
e 27 72
e 27 73
e 27 74
e 27 77
e 27 78
e 27 81
e 27 87
e 27 88
e 27 89
e 27 90
e 27 91
e 27 94
e 27 95
e 27 96
e 27 98
e 27 100
e 28 32
e 28 34
e 28 39
e 28 42
e 28 47
e 28 48
e 28 49
e 28 50
e 28 56
e 28 57
e 28 61
e 28 62
e 28 64
e 28 66
e 28 68
e 28 69
e 28 70
e 28 71
e 28 74
e 28 75
e 28 78
e 28 80
e 28 81
e 28 83
e 28 84
e 28 86
e 28 87
e 28 92
e 28 93
e 28 94
e 28 95
e 28 98
e 28 99
e 29 33
e 29 35
e 29 36
e 29 38
e 29 39
e 29 40
e 29 45
e 29 47
e 29 48
e 29 50
e 29 52
e 29 53
e 29 54
e 29 56
e 29 61
e 29 62
e 29 65
e 29 69
e 29 71
e 29 72
e 29 75
e 29 76
e 29 78
e 29 81
e 29 82
e 29 85
e 29 86
e 29 88
e 29 89
e 29 90
e 29 91
e 29 92
e 29 95
e 29 98
e 30 31
e 30 36
e 30 37
e 30 38
e 30 46
e 30 47
e 30 48
e 30 50
e 30 54
e 30 55
e 30 66
e 30 68
e 30 69
e 30 70
e 30 72
e 30 73
e 30 75
e 30 78
e 30 79
e 30 80
e 30 81
e 30 83
e 30 87
e 30 89
e 30 90
e 30 92
e 30 93
e 30 94
e 30 96
e 30 97
e 30 99
e 31 32
e 31 38
e 31 39
e 31 41
e 31 43
e 31 44
e 31 45
e 31 47
e 31 49
e 31 51
e 31 53
e 31 54
e 31 56
e 31 57
e 31 58
e 31 60
e 31 61
e 31 62
e 31 63
e 31 64
e 31 65
e 31 68
e 31 69
e 31 70
e 31 71
e 31 73
e 31 74
e 31 76
e 31 77
e 31 80
e 31 84
e 31 88
e 31 90
e 31 91
e 31 92
e 31 94
e 31 95
e 31 97
e 31 98
e 31 100
e 32 33
e 32 34
e 32 36
e 32 37
e 32 38
e 32 39
e 32 40
e 32 41
e 32 44
e 32 46
e 32 47
e 32 49
e 32 53
e 32 54
e 32 55
e 32 58
e 32 61
e 32 63
e 32 68
e 32 69
e 32 70
e 32 71
e 32 73
e 32 74
e 32 82
e 32 88
e 32 89
e 32 90
e 32 95
e 32 96
e 32 98
e 32 99
e 33 34
e 33 36
e 33 37
e 33 38
e 33 40
e 33 45
e 33 46
e 33 47
e 33 50
e 33 53
e 33 56
e 33 57
e 33 59
e 33 60
e 33 61
e 33 62
e 33 64
e 33 68
e 33 71
e 33 72
e 33 73
e 33 74
e 33 76
e 33 78
e 33 79
e 33 80
e 33 81
e 33 82
e 33 83
e 33 86
e 33 90
e 33 91
e 33 92
e 33 93
e 33 96
e 33 98
e 33 99
e 33 100
e 34 36
e 34 38
e 34 40
e 34 42
e 34 44
e 34 47
e 34 48
e 34 52
e 34 53
e 34 54
e 34 56
e 34 59
e 34 60
e 34 64
e 34 65
e 34 70
e 34 72
e 34 74
e 34 75
e 34 76
e 34 77
e 34 81
e 34 82
e 34 83
e 34 87
e 34 93
e 34 97
e 34 98
e 34 99
e 35 37
e 35 38
e 35 39
e 35 43
e 35 44
e 35 45
e 35 49
e 35 50
e 35 51
e 35 52
e 35 55
e 35 56
e 35 60
e 35 62
e 35 65
e 35 66
e 35 67
e 35 71
e 35 73
e 35 74
e 35 75
e 35 77
e 35 79
e 35 81
e 35 82
e 35 83
e 35 85
e 35 86
e 35 87
e 35 91
e 35 92
e 35 95
e 35 96
e 35 97
e 35 99
e 36 37
e 36 39
e 36 42
e 36 43
e 36 44
e 36 45
e 36 46
e 36 47
e 36 48
e 36 50
e 36 51
e 36 53
e 36 54
e 36 56
e 36 61
e 36 63
e 36 64
e 36 67
e 36 68
e 36 69
e 36 70
e 36 72
e 36 74
e 36 76
e 36 84
e 36 85
e 36 86
e 36 87
e 36 92
e 36 94
e 36 95
e 36 96
e 36 97
e 36 98
e 36 100
e 37 40
e 37 43
e 37 47
e 37 48
e 37 50
e 37 53
e 37 56
e 37 59
e 37 61
e 37 62
e 37 63
e 37 67
e 37 71
e 37 72
e 37 74
e 37 75
e 37 76
e 37 77
e 37 79
e 37 82
e 37 83
e 37 85
e 37 86
e 37 87
e 37 90
e 37 94
e 37 96
e 37 99
e 37 100
e 38 40
e 38 44
e 38 48
e 38 51
e 38 53
e 38 54
e 38 55
e 38 57
e 38 62
e 38 64
e 38 65
e 38 67
e 38 69
e 38 70
e 38 77
e 38 81
e 38 82
e 38 85
e 38 86
e 38 87
e 38 91
e 38 93
e 38 94
e 38 95
e 38 99
e 38 100
e 39 41
e 39 46
e 39 48
e 39 51
e 39 55
e 39 57
e 39 61
e 39 62
e 39 63
e 39 64
e 39 67
e 39 68
e 39 73
e 39 74
e 39 75
e 39 76
e 39 77
e 39 78
e 39 79
e 39 80
e 39 81
e 39 83
e 39 84
e 39 86
e 39 87
e 39 89
e 39 91
e 39 92
e 39 93
e 39 94
e 39 97
e 39 98
e 39 99
e 40 44
e 40 45
e 40 46
e 40 47
e 40 53
e 40 54
e 40 55
e 40 58
e 40 61
e 40 62
e 40 63
e 40 66
e 40 78
e 40 79
e 40 80
e 40 82
e 40 83
e 40 84
e 40 86
e 40 87
e 40 88
e 40 91
e 40 96
e 40 98
e 40 99
e 41 44
e 41 46
e 41 47
e 41 48
e 41 49
e 41 50
e 41 52
e 41 53
e 41 54
e 41 56
e 41 60
e 41 61
e 41 62
e 41 63
e 41 64
e 41 65
e 41 66
e 41 69
e 41 70
e 41 71
e 41 73
e 41 77
e 41 78
e 41 80
e 41 81
e 41 86
e 41 87
e 41 89
e 41 92
e 41 93
e 41 94
e 41 97
e 41 99
e 41 100
e 42 44
e 42 47
e 42 52
e 42 53
e 42 54
e 42 55
e 42 57
e 42 59
e 42 60
e 42 62
e 42 64
e 42 66
e 42 67
e 42 68
e 42 72
e 42 77
e 42 78
e 42 83
e 42 89
e 42 91
e 42 92
e 42 95
e 42 96
e 42 97
e 42 100
e 43 44
e 43 46
e 43 47
e 43 48
e 43 49
e 43 50
e 43 52
e 43 56
e 43 57
e 43 59
e 43 61
e 43 62
e 43 64
e 43 65
e 43 67
e 43 68
e 43 69
e 43 70
e 43 72
e 43 73
e 43 77
e 43 78
e 43 80
e 43 81
e 43 83
e 43 84
e 43 85
e 43 86
e 43 88
e 43 89
e 43 90
e 43 92
e 43 93
e 43 99
e 44 45
e 44 47
e 44 48
e 44 57
e 44 58
e 44 59
e 44 60
e 44 61
e 44 64
e 44 66
e 44 68
e 44 71
e 44 73
e 44 74
e 44 76
e 44 77
e 44 79
e 44 80
e 44 81
e 44 82
e 44 84
e 44 87
e 44 88
e 44 90
e 44 92
e 44 94
e 44 96
e 44 97
e 44 100
e 45 46
e 45 49
e 45 53
e 45 54
e 45 56
e 45 58
e 45 59
e 45 61
e 45 64
e 45 65
e 45 67
e 45 68
e 45 70
e 45 71
e 45 72
e 45 76
e 45 78
e 45 80
e 45 81
e 45 90
e 45 91
e 45 92
e 45 94
e 45 99
e 46 47
e 46 48
e 46 52
e 46 59
e 46 62
e 46 63
e 46 66
e 46 69
e 46 70
e 46 71
e 46 72
e 46 73
e 46 74
e 46 80
e 46 84
e 46 86
e 46 87
e 46 89
e 46 91
e 46 94
e 46 95
e 46 97
e 46 98
e 47 48
e 47 54
e 47 55
e 47 57
e 47 58
e 47 59
e 47 60
e 47 64
e 47 65
e 47 66
e 47 67
e 47 69
e 47 70
e 47 74
e 47 75
e 47 79
e 47 80
e 47 85
e 47 87
e 47 88
e 47 89
e 47 91
e 47 94
e 47 97
e 47 98
e 48 49
e 48 50
e 48 51
e 48 53
e 48 55
e 48 60
e 48 61
e 48 62
e 48 63
e 48 64
e 48 65
e 48 68
e 48 69
e 48 71
e 48 72
e 48 73
e 48 74
e 48 76
e 48 77
e 48 78
e 48 79
e 48 81
e 48 83
e 48 84
e 48 85
e 48 89
e 48 91
e 48 94
e 48 98
e 48 100
e 49 50
e 49 51
e 49 52
e 49 53
e 49 54
e 49 55
e 49 57
e 49 63
e 49 64
e 49 66
e 49 67
e 49 69
e 49 74
e 49 76
e 49 77
e 49 78
e 49 79
e 49 80
e 49 81
e 49 87
e 49 88
e 49 89
e 49 90
e 49 92
e 49 93
e 49 94
e 49 95
e 49 96
e 49 97
e 50 51
e 50 53
e 50 56
e 50 57
e 50 59
e 50 61
e 50 63
e 50 65
e 50 69
e 50 71
e 50 72
e 50 73
e 50 74
e 50 75
e 50 76
e 50 77
e 50 79
e 50 81
e 50 82
e 50 85
e 50 86
e 50 89
e 50 90
e 50 92
e 50 95
e 50 96
e 51 56
e 51 57
e 51 58
e 51 59
e 51 61
e 51 62
e 51 65
e 51 67
e 51 68
e 51 69
e 51 70
e 51 72
e 51 74
e 51 75
e 51 77
e 51 78
e 51 79
e 51 80
e 51 82
e 51 83
e 51 85
e 51 87
e 51 88
e 51 89
e 51 91
e 51 93
e 51 96
e 51 97
e 51 98
e 51 99
e 52 53
e 52 54
e 52 55
e 52 57
e 52 58
e 52 60
e 52 62
e 52 64
e 52 65
e 52 67
e 52 73
e 52 76
e 52 79
e 52 80
e 52 83
e 52 84
e 52 86
e 52 91
e 52 92
e 52 97
e 52 98
e 52 99
e 52 100
e 53 55
e 53 58
e 53 61
e 53 62
e 53 63
e 53 64
e 53 65
e 53 67
e 53 68
e 53 71
e 53 72
e 53 73
e 53 77
e 53 78
e 53 79
e 53 82
e 53 83
e 53 95
e 53 96
e 53 99
e 53 100
e 54 56
e 54 59
e 54 61
e 54 62
e 54 63
e 54 65
e 54 71
e 54 72
e 54 73
e 54 80
e 54 82
e 54 84
e 54 86
e 54 89
e 54 91
e 54 94
e 54 95
e 54 97
e 54 98
e 54 99
e 55 58
e 55 59
e 55 63
e 55 65
e 55 66
e 55 69
e 55 72
e 55 73
e 55 74
e 55 76
e 55 78
e 55 80
e 55 85
e 55 86
e 55 95
e 55 96
e 55 97
e 55 98
e 55 99
e 55 100
e 56 60
e 56 61
e 56 62
e 56 64
e 56 66
e 56 68
e 56 69
e 56 70
e 56 76
e 56 77
e 56 78
e 56 80
e 56 82
e 56 83
e 56 84
e 56 85
e 56 86
e 56 88
e 56 89
e 56 92
e 56 94
e 56 96
e 56 98
e 56 100
e 57 58
e 57 59
e 57 61
e 57 63
e 57 64
e 57 65
e 57 66
e 57 67
e 57 69
e 57 70
e 57 72
e 57 74
e 57 75
e 57 76
e 57 80
e 57 82
e 57 84
e 57 89
e 57 90
e 57 92
e 57 93
e 57 96
e 57 97
e 57 98
e 57 100
e 58 62
e 58 63
e 58 65
e 58 66
e 58 68
e 58 69
e 58 70
e 58 71
e 58 72
e 58 73
e 58 74
e 58 75
e 58 77
e 58 78
e 58 82
e 58 88
e 58 90
e 58 91
e 58 95
e 58 98
e 58 100
e 59 60
e 59 61
e 59 62
e 59 63
e 59 64
e 59 65
e 59 66
e 59 67
e 59 69
e 59 70
e 59 72
e 59 76
e 59 77
e 59 78
e 59 79
e 59 83
e 59 85
e 59 86
e 59 88
e 59 89
e 59 92
e 59 93
e 59 94
e 59 95
e 59 97
e 60 62
e 60 63
e 60 64
e 60 66
e 60 68
e 60 74
e 60 75
e 60 76
e 60 77
e 60 79
e 60 80
e 60 84
e 60 86
e 60 88
e 60 90
e 60 91
e 60 92
e 60 100
e 61 65
e 61 66
e 61 67
e 61 68
e 61 69
e 61 70
e 61 73
e 61 76
e 61 79
e 61 80
e 61 81
e 61 85
e 61 86
e 61 90
e 61 92
e 61 95
e 61 96
e 62 67
e 62 68
e 62 69
e 62 70
e 62 71
e 62 73
e 62 74
e 62 75
e 62 77
e 62 80
e 62 81
e 62 83
e 62 84
e 62 85
e 62 86
e 62 88
e 62 90
e 62 91
e 62 92
e 62 93
e 62 96
e 62 98
e 62 100
e 63 64
e 63 68
e 63 70
e 63 72
e 63 73
e 63 76
e 63 77
e 63 78
e 63 79
e 63 83
e 63 87
e 63 88
e 63 89
e 63 90
e 63 91
e 63 94
e 63 97
e 63 98
e 64 66
e 64 67
e 64 69
e 64 70
e 64 72
e 64 73
e 64 74
e 64 80
e 64 82
e 64 84
e 64 85
e 64 86
e 64 88
e 64 89
e 64 92
e 64 95
e 64 100
e 65 66
e 65 68
e 65 69
e 65 72
e 65 73
e 65 75
e 65 78
e 65 79
e 65 81
e 65 82
e 65 83
e 65 87
e 65 88
e 65 90
e 65 93
e 65 95
e 65 96
e 65 99
e 66 68
e 66 69
e 66 70
e 66 71
e 66 72
e 66 75
e 66 76
e 66 77
e 66 78
e 66 81
e 66 82
e 66 84
e 66 88
e 66 89
e 66 91
e 66 96
e 66 98
e 66 99
e 67 68
e 67 72
e 67 74
e 67 76
e 67 79
e 67 81
e 67 85
e 67 86
e 67 87
e 67 89
e 67 93
e 67 95
e 67 97
e 67 98
e 68 75
e 68 77
e 68 78
e 68 81
e 68 82
e 68 84
e 68 85
e 68 87
e 68 88
e 68 90
e 68 91
e 68 92
e 68 99
e 69 71
e 69 72
e 69 74
e 69 75
e 69 76
e 69 80
e 69 82
e 69 84
e 69 85
e 69 96
e 69 97
e 69 100
e 70 71
e 70 72
e 70 75
e 70 76
e 70 77
e 70 81
e 70 85
e 70 86
e 70 88
e 70 90
e 70 93
e 70 95
e 70 97
e 70 99
e 71 74
e 71 75
e 71 77
e 71 78
e 71 80
e 71 81
e 71 83
e 71 84
e 71 86
e 71 87
e 71 90
e 71 92
e 71 93
e 71 94
e 71 96
e 71 99
e 71 100
e 72 73
e 72 74
e 72 77
e 72 78
e 72 79
e 72 87
e 72 88
e 72 89
e 72 90
e 72 92
e 72 94
e 72 96
e 72 98
e 72 99
e 72 100
e 73 80
e 73 84
e 73 85
e 73 87
e 73 88
e 73 89
e 73 90
e 73 91
e 73 92
e 73 93
e 73 95
e 73 96
e 73 100
e 74 75
e 74 76
e 74 77
e 74 80
e 74 81
e 74 82
e 74 90
e 74 91
e 74 93
e 74 94
e 74 98
e 75 77
e 75 80
e 75 85
e 75 87
e 75 90
e 75 92
e 75 94
e 75 95
e 75 97
e 75 98
e 75 99
e 76 77
e 76 78
e 76 79
e 76 80
e 76 82
e 76 84
e 76 86
e 76 89
e 76 95
e 76 96
e 76 98
e 77 78
e 77 80
e 77 84
e 77 86
e 77 88
e 77 89
e 77 90
e 77 91
e 77 92
e 77 93
e 77 95
e 77 96
e 77 100
e 78 79
e 78 83
e 78 85
e 78 86
e 78 87
e 78 89
e 78 92
e 78 93
e 78 95
e 78 96
e 78 98
e 79 84
e 79 85
e 79 89
e 79 90
e 79 91
e 79 92
e 79 94
e 79 95
e 79 96
e 79 98
e 79 99
e 80 84
e 80 85
e 80 86
e 80 87
e 80 90
e 80 91
e 80 94
e 80 97
e 80 99
e 81 82
e 81 85
e 81 86
e 81 88
e 81 92
e 81 94
e 81 95
e 81 96
e 81 98
e 81 99
e 81 100
e 82 83
e 82 84
e 82 85
e 82 86
e 82 91
e 82 92
e 82 93
e 82 96
e 82 97
e 82 99
e 83 85
e 83 87
e 83 89
e 83 92
e 83 93
e 83 94
e 83 96
e 83 98
e 84 86
e 84 87
e 84 89
e 84 92
e 84 93
e 84 94
e 84 95
e 84 97
e 85 88
e 85 90
e 85 91
e 85 92
e 85 93
e 85 94
e 85 95
e 85 98
e 85 99
e 85 100
e 86 87
e 86 90
e 86 91
e 86 94
e 86 97
e 86 99
e 86 100
e 87 88
e 87 91
e 87 92
e 87 94
e 87 95
e 87 96
e 88 89
e 88 93
e 88 96
e 88 98
e 88 99
e 88 100
e 89 90
e 89 91
e 89 92
e 89 93
e 89 94
e 89 96
e 89 97
e 89 98
e 90 91
e 90 92
e 90 96
e 90 97
e 91 94
e 91 95
e 91 96
e 91 97
e 91 98
e 91 99
e 91 100
e 92 93
e 92 95
e 92 99
e 92 100
e 93 94
e 93 98
e 94 99
e 95 98
e 95 100
e 96 97
e 96 98
e 96 99
e 98 99
e 98 100
e 99 100
